(set-logic ALL)
(declare-var i (BitVec 32))
(declare-var n (BitVec 32))
(declare-var sn (BitVec 32))
(declare-var i! (BitVec 32))
(declare-var n! (BitVec 32))
(declare-var sn! (BitVec 32))
(synth-fun inv-f((parameter0 (BitVec 32))(parameter1 (BitVec 32))(parameter2 (BitVec 32)))Bool) 
(constraint (=> (and (= sn (_ bv0 32)) (= i (_ bv1 32)) )(inv-f i n sn )))
(constraint (=> (and (inv-f i n sn ) (and (= n! n) (and (= i! (bvadd i (_ bv1 32))) (and (bvule i n) (= sn! (bvadd sn (_ bv1 32))) ) ) ) )(inv-f i! n! sn! )))
(constraint (=> (inv-f i n sn )(or (bvule i n) (or (= sn n) (= sn (_ bv0 32)) ) )))
(check-synth)

